p cnf 50 20
x -1 3 4 -5 -7 9 -10 15 16 18 21 -22 23 -25 -28 29 30 31 33 -34 -35 36 -39 -40 -41 -44 46 48 -50 0
x 2 3 4 -6 -9 11 13 -16 17 -18 -19 20 22 23 -24 -26 28 -30 -31 32 -33 37 -44 -45 46 -50 0
x 2 3 4 5 6 -7 9 -10 11 -13 17 18 -21 -27 -28 29 30 -31 32 33 35 -37 41 42 43 45 -47 -48 0
x -1 -2 -3 4 -7 9 11 -13 16 -17 18 -20 -21 -23 24 25 -26 -29 -30 33 -34 35 -36 37 38 39 -40 -42 44 46 -49 0
x 2 4 6 8 9 -10 11 -24 25 -26 -29 -30 31 -32 -33 -34 36 -37 38 39 42 -45 46 -47 -49 50 0
x -3 -4 -5 8 10 -11 -12 -13 -19 21 22 23 -24 27 -30 -31 32 33 -34 36 38 -40 41 -42 -44 -45 46 49 50 0
x 3 5 6 7 12 -14 -15 16 18 19 -20 -22 23 24 25 -30 32 -33 -35 -37 38 -39 -42 43 44 45 -46 -47 50 0
x -1 2 -5 -6 8 9 11 -12 14 15 19 -22 26 27 -28 -29 31 34 37 39 -40 -42 44 -48 -49 -50 0
x -1 -2 4 5 6 11 -12 -13 15 17 21 22 23 -26 28 29 -30 -31 32 34 -35 -39 -42 47 0
x 1 -2 4 -6 10 12 13 -14 -16 -20 27 29 -30 34 -36 39 -41 -42 -46 47 -49 -50 0
x -1 -6 7 8 -9 -11 12 17 18 20 21 22 -23 24 28 30 32 -33 34 -36 37 38 -39 -41 -43 45 47 0
x -2 -4 5 -7 11 -13 -15 20 -24 25 -28 29 30 31 -32 -37 43 44 -45 -46 47 -49 0
x 2 -3 -4 -5 8 -10 -11 12 14 15 -16 -18 19 -20 21 22 24 26 -27 -28 32 37 39 -41 46 47 49 0
x -3 -9 -11 -14 15 -16 18 -21 -24 -25 27 -28 -30 -31 -33 36 -37 -38 39 -40 -42 -46 -47 -48 49 50 0
x -1 3 -5 -6 7 9 10 14 -15 22 23 25 26 -27 28 29 32 34 -35 37 38 39 -40 -41 -42 -43 -48 0
x -1 2 -4 -5 -8 10 -12 15 -17 20 -22 24 -26 29 31 -35 39 -44 -46 -47 -49 0
x 1 -4 -5 -6 11 12 -13 14 15 -17 20 21 -22 28 -29 -30 -31 32 33 -34 40 43 45 47 -49 0
x 2 -3 -7 -10 11 13 -17 21 -22 23 -27 -28 29 -31 32 -38 39 -40 42 -43 44 -46 -49 0
x 3 -4 -10 11 -12 13 -14 16 -17 -18 23 25 26 -30 -33 -34 35 36 37 38 -39 41 45 -48 50 0
x 4 5 -10 -11 13 14 -16 17 22 -23 -24 -25 26 27 -31 -32 -33 -35 37 42 -43 -44 45 47 0
g -10